0.1 1478.7 377.7 344.6 430 77.5
0.2 1478.7 509.1 652.8 1154.6 152.3
0.5 1551.8 649.3 736.9 1413.2 366.9
1.0 1552.7 672.2 782.8 3239.1 771
2.0 1635.5 803.7 1763.5 5475.7 1407.4
5.0 3761.3 2284 3636.9 7923.6 3191.1
10.0 4731 3896.3 6555 15195.2 6275.3
20.0 7002.5 6255.4 8410.8 17655.8 12357.3
50.0 13391.5 13151.5 14889.5 18725.6 28561
100.0 18231.6 18452.2 19168.8 22333.9 46840.8